\ENCODING=ISO-8859-1
\Problem name: ulysses16

Minimize
 obj1: x(1,1) + 492 x(1,2) + 466 x(1,3) + 312 x(1,4) + 1072 x(1,5) + 749 x(1,6)
       + 656 x(1,7) + 135 x(1,8) + 1040 x(1,9) + 727 x(1,10) + 2373 x(1,11)
       + 480 x(1,12) + 448 x(1,13) + 496 x(1,14) + 619 x(1,15) + 183 x(1,16)
       + 492 x(2,1) + x(2,2) + 126 x(2,3) + 416 x(2,4) + 1555 x(2,5)
       + 1238 x(2,6) + 1132 x(2,7) + 536 x(2,8) + 1467 x(2,9) + 1140 x(2,10)
       + 2849 x(2,11) + 956 x(2,12) + 933 x(2,13) + 987 x(2,14) + 1104 x(2,15)
       + 602 x(2,16) + 466 x(3,1) + 126 x(3,2) + x(3,3) + 474 x(3,4)
       + 1536 x(3,5) + 1194 x(3,6) + 1075 x(3,7) + 540 x(3,8) + 1383 x(3,9)
       + 1056 x(3,10) + 2784 x(3,11) + 902 x(3,12) + 887 x(3,13) + 954 x(3,14)
       + 1084 x(3,15) + 541 x(3,16) + 312 x(4,1) + 416 x(4,2) + 474 x(4,3)
       + x(4,4) + 1217 x(4,5) + 974 x(4,6) + 920 x(4,7) + 237 x(4,8)
       + 1334 x(4,9) + 1030 x(4,10) + 2613 x(4,11) + 752 x(4,12) + 705 x(4,13)
       + 711 x(4,14) + 783 x(4,15) + 494 x(4,16) + 1072 x(5,1) + 1555 x(5,2)
       + 1536 x(5,3) + 1217 x(5,4) + x(5,5) + 431 x(5,6) + 607 x(5,7)
       + 1024 x(5,8) + 850 x(5,9) + 871 x(5,10) + 1504 x(5,11) + 713 x(5,12)
       + 692 x(5,13) + 594 x(5,14) + 454 x(5,15) + 1033 x(5,16) + 749 x(6,1)
       + 1238 x(6,2) + 1194 x(6,3) + 974 x(6,4) + 431 x(6,5) + x(6,6)
       + 178 x(6,7) + 747 x(6,8) + 533 x(6,9) + 453 x(6,10) + 1640 x(6,11)
       + 306 x(6,12) + 309 x(6,13) + 264 x(6,14) + 257 x(6,15) + 660 x(6,16)
       + 656 x(7,1) + 1132 x(7,2) + 1075 x(7,3) + 920 x(7,4) + 607 x(7,5)
       + 178 x(7,6) + x(7,7) + 684 x(7,8) + 455 x(7,9) + 289 x(7,10)
       + 1719 x(7,11) + 178 x(7,12) + 216 x(7,13) + 251 x(7,14) + 344 x(7,15)
       + 536 x(7,16) + 135 x(8,1) + 536 x(8,2) + 540 x(8,3) + 237 x(8,4)
       + 1024 x(8,5) + 747 x(8,6) + 684 x(8,7) + x(8,8) + 1100 x(8,9)
       + 802 x(8,10) + 2385 x(8,11) + 516 x(8,12) + 469 x(8,13) + 484 x(8,14)
       + 577 x(8,15) + 297 x(8,16) + 1040 x(9,1) + 1467 x(9,2) + 1383 x(9,3)
       + 1334 x(9,4) + 850 x(9,5) + 533 x(9,6) + 455 x(9,7) + 1100 x(9,8)
       + x(9,9) + 329 x(9,10) + 1440 x(9,11) + 592 x(9,12) + 651 x(9,13)
       + 705 x(9,14) + 777 x(9,15) + 878 x(9,16) + 727 x(10,1) + 1140 x(10,2)
       + 1056 x(10,3) + 1030 x(10,4) + 871 x(10,5) + 453 x(10,6) + 289 x(10,7)
       + 802 x(10,8) + 329 x(10,9) + x(10,10) + 1752 x(10,11) + 333 x(10,12)
       + 401 x(10,13) + 495 x(10,14) + 622 x(10,15) + 557 x(10,16)
       + 2373 x(11,1) + 2849 x(11,2) + 2784 x(11,3) + 2613 x(11,4)
       + 1504 x(11,5) + 1640 x(11,6) + 1719 x(11,7) + 2385 x(11,8)
       + 1440 x(11,9) + 1752 x(11,10) + x(11,11) + 1896 x(11,12)
       + 1927 x(11,13) + 1903 x(11,14) + 1849 x(11,15) + 2249 x(11,16)
       + 480 x(12,1) + 956 x(12,2) + 902 x(12,3) + 752 x(12,4) + 713 x(12,5)
       + 306 x(12,6) + 178 x(12,7) + 516 x(12,8) + 592 x(12,9) + 333 x(12,10)
       + 1896 x(12,11) + x(12,12) + 68 x(12,13) + 179 x(12,14) + 337 x(12,15)
       + 362 x(12,16) + 448 x(13,1) + 933 x(13,2) + 887 x(13,3) + 705 x(13,4)
       + 692 x(13,5) + 309 x(13,6) + 216 x(13,7) + 469 x(13,8) + 651 x(13,9)
       + 401 x(13,10) + 1927 x(13,11) + 68 x(13,12) + x(13,13) + 123 x(13,14)
       + 288 x(13,15) + 354 x(13,16) + 496 x(14,1) + 987 x(14,2) + 954 x(14,3)
       + 711 x(14,4) + 594 x(14,5) + 264 x(14,6) + 251 x(14,7) + 484 x(14,8)
       + 705 x(14,9) + 495 x(14,10) + 1903 x(14,11) + 179 x(14,12)
       + 123 x(14,13) + x(14,14) + 167 x(14,15) + 440 x(14,16) + 619 x(15,1)
       + 1104 x(15,2) + 1084 x(15,3) + 783 x(15,4) + 454 x(15,5) + 257 x(15,6)
       + 344 x(15,7) + 577 x(15,8) + 777 x(15,9) + 622 x(15,10) + 1849 x(15,11)
       + 337 x(15,12) + 288 x(15,13) + 167 x(15,14) + x(15,15) + 593 x(15,16)
       + 183 x(16,1) + 602 x(16,2) + 541 x(16,3) + 494 x(16,4) + 1033 x(16,5)
       + 660 x(16,6) + 536 x(16,7) + 297 x(16,8) + 878 x(16,9) + 557 x(16,10)
       + 2249 x(16,11) + 362 x(16,12) + 354 x(16,13) + 440 x(16,14)
       + 593 x(16,15) + x(16,16) + 0 u(1) + 0 u(2) + 0 u(3) + 0 u(4) + 0 u(5)
       + 0 u(6) + 0 u(7) + 0 u(8) + 0 u(9) + 0 u(10) + 0 u(11) + 0 u(12)
       + 0 u(13) + 0 u(14) + 0 u(15) + 0 u(16)
Subject To
 degree(1):  x(1,2) + x(1,3) + x(1,4) + x(1,5) + x(1,6) + x(1,7) + x(1,8)
             + x(1,9) + x(1,10) + x(1,11) + x(1,12) + x(1,13) + x(1,14)
             + x(1,15) + x(1,16)  = 1
 degree(2):  x(2,1) + x(2,3) + x(2,4) + x(2,5) + x(2,6) + x(2,7) + x(2,8)
             + x(2,9) + x(2,10) + x(2,11) + x(2,12) + x(2,13) + x(2,14)
             + x(2,15) + x(2,16)  = 1
 degree(3):  x(3,1) + x(3,2) + x(3,4) + x(3,5) + x(3,6) + x(3,7) + x(3,8)
             + x(3,9) + x(3,10) + x(3,11) + x(3,12) + x(3,13) + x(3,14)
             + x(3,15) + x(3,16)  = 1
 degree(4):  x(4,1) + x(4,2) + x(4,3) + x(4,5) + x(4,6) + x(4,7) + x(4,8)
             + x(4,9) + x(4,10) + x(4,11) + x(4,12) + x(4,13) + x(4,14)
             + x(4,15) + x(4,16)  = 1
 degree(5):  x(5,1) + x(5,2) + x(5,3) + x(5,4) + x(5,6) + x(5,7) + x(5,8)
             + x(5,9) + x(5,10) + x(5,11) + x(5,12) + x(5,13) + x(5,14)
             + x(5,15) + x(5,16)  = 1
 degree(6):  x(6,1) + x(6,2) + x(6,3) + x(6,4) + x(6,5) + x(6,7) + x(6,8)
             + x(6,9) + x(6,10) + x(6,11) + x(6,12) + x(6,13) + x(6,14)
             + x(6,15) + x(6,16)  = 1
 degree(7):  x(7,1) + x(7,2) + x(7,3) + x(7,4) + x(7,5) + x(7,6) + x(7,8)
             + x(7,9) + x(7,10) + x(7,11) + x(7,12) + x(7,13) + x(7,14)
             + x(7,15) + x(7,16)  = 1
 degree(8):  x(8,1) + x(8,2) + x(8,3) + x(8,4) + x(8,5) + x(8,6) + x(8,7)
             + x(8,9) + x(8,10) + x(8,11) + x(8,12) + x(8,13) + x(8,14)
             + x(8,15) + x(8,16)  = 1
 degree(9):  x(9,1) + x(9,2) + x(9,3) + x(9,4) + x(9,5) + x(9,6) + x(9,7)
             + x(9,8) + x(9,10) + x(9,11) + x(9,12) + x(9,13) + x(9,14)
             + x(9,15) + x(9,16)  = 1
 degree(10): x(10,1) + x(10,2) + x(10,3) + x(10,4) + x(10,5) + x(10,6)
             + x(10,7) + x(10,8) + x(10,9) + x(10,11) + x(10,12) + x(10,13)
             + x(10,14) + x(10,15) + x(10,16)  = 1
 degree(11): x(11,1) + x(11,2) + x(11,3) + x(11,4) + x(11,5) + x(11,6)
             + x(11,7) + x(11,8) + x(11,9) + x(11,10) + x(11,12) + x(11,13)
             + x(11,14) + x(11,15) + x(11,16)  = 1
 degree(12): x(12,1) + x(12,2) + x(12,3) + x(12,4) + x(12,5) + x(12,6)
             + x(12,7) + x(12,8) + x(12,9) + x(12,10) + x(12,11) + x(12,13)
             + x(12,14) + x(12,15) + x(12,16)  = 1
 degree(13): x(13,1) + x(13,2) + x(13,3) + x(13,4) + x(13,5) + x(13,6)
             + x(13,7) + x(13,8) + x(13,9) + x(13,10) + x(13,11) + x(13,12)
             + x(13,14) + x(13,15) + x(13,16)  = 1
 degree(14): x(14,1) + x(14,2) + x(14,3) + x(14,4) + x(14,5) + x(14,6)
             + x(14,7) + x(14,8) + x(14,9) + x(14,10) + x(14,11) + x(14,12)
             + x(14,13) + x(14,15) + x(14,16)  = 1
 degree(15): x(15,1) + x(15,2) + x(15,3) + x(15,4) + x(15,5) + x(15,6)
             + x(15,7) + x(15,8) + x(15,9) + x(15,10) + x(15,11) + x(15,12)
             + x(15,13) + x(15,14) + x(15,16)  = 1
 degree(16): x(16,1) + x(16,2) + x(16,3) + x(16,4) + x(16,5) + x(16,6)
             + x(16,7) + x(16,8) + x(16,9) + x(16,10) + x(16,11) + x(16,12)
             + x(16,13) + x(16,14) + x(16,15)  = 1
 degree(17): x(2,1) + x(3,1) + x(4,1) + x(5,1) + x(6,1) + x(7,1) + x(8,1)
             + x(9,1) + x(10,1) + x(11,1) + x(12,1) + x(13,1) + x(14,1)
             + x(15,1) + x(16,1)  = 1
 degree(18): x(1,2) + x(3,2) + x(4,2) + x(5,2) + x(6,2) + x(7,2) + x(8,2)
             + x(9,2) + x(10,2) + x(11,2) + x(12,2) + x(13,2) + x(14,2)
             + x(15,2) + x(16,2)  = 1
 degree(19): x(1,3) + x(2,3) + x(4,3) + x(5,3) + x(6,3) + x(7,3) + x(8,3)
             + x(9,3) + x(10,3) + x(11,3) + x(12,3) + x(13,3) + x(14,3)
             + x(15,3) + x(16,3)  = 1
 degree(20): x(1,4) + x(2,4) + x(3,4) + x(5,4) + x(6,4) + x(7,4) + x(8,4)
             + x(9,4) + x(10,4) + x(11,4) + x(12,4) + x(13,4) + x(14,4)
             + x(15,4) + x(16,4)  = 1
 degree(21): x(1,5) + x(2,5) + x(3,5) + x(4,5) + x(6,5) + x(7,5) + x(8,5)
             + x(9,5) + x(10,5) + x(11,5) + x(12,5) + x(13,5) + x(14,5)
             + x(15,5) + x(16,5)  = 1
 degree(22): x(1,6) + x(2,6) + x(3,6) + x(4,6) + x(5,6) + x(7,6) + x(8,6)
             + x(9,6) + x(10,6) + x(11,6) + x(12,6) + x(13,6) + x(14,6)
             + x(15,6) + x(16,6)  = 1
 degree(23): x(1,7) + x(2,7) + x(3,7) + x(4,7) + x(5,7) + x(6,7) + x(8,7)
             + x(9,7) + x(10,7) + x(11,7) + x(12,7) + x(13,7) + x(14,7)
             + x(15,7) + x(16,7)  = 1
 degree(24): x(1,8) + x(2,8) + x(3,8) + x(4,8) + x(5,8) + x(6,8) + x(7,8)
             + x(9,8) + x(10,8) + x(11,8) + x(12,8) + x(13,8) + x(14,8)
             + x(15,8) + x(16,8)  = 1
 degree(25): x(1,9) + x(2,9) + x(3,9) + x(4,9) + x(5,9) + x(6,9) + x(7,9)
             + x(8,9) + x(10,9) + x(11,9) + x(12,9) + x(13,9) + x(14,9)
             + x(15,9) + x(16,9)  = 1
 degree(26): x(1,10) + x(2,10) + x(3,10) + x(4,10) + x(5,10) + x(6,10)
             + x(7,10) + x(8,10) + x(9,10) + x(11,10) + x(12,10) + x(13,10)
             + x(14,10) + x(15,10) + x(16,10)  = 1
 degree(27): x(1,11) + x(2,11) + x(3,11) + x(4,11) + x(5,11) + x(6,11)
             + x(7,11) + x(8,11) + x(9,11) + x(10,11) + x(12,11) + x(13,11)
             + x(14,11) + x(15,11) + x(16,11)  = 1
 degree(28): x(1,12) + x(2,12) + x(3,12) + x(4,12) + x(5,12) + x(6,12)
             + x(7,12) + x(8,12) + x(9,12) + x(10,12) + x(11,12) + x(13,12)
             + x(14,12) + x(15,12) + x(16,12)  = 1
 degree(29): x(1,13) + x(2,13) + x(3,13) + x(4,13) + x(5,13) + x(6,13)
             + x(7,13) + x(8,13) + x(9,13) + x(10,13) + x(11,13) + x(12,13)
             + x(14,13) + x(15,13) + x(16,13)  = 1
 degree(30): x(1,14) + x(2,14) + x(3,14) + x(4,14) + x(5,14) + x(6,14)
             + x(7,14) + x(8,14) + x(9,14) + x(10,14) + x(11,14) + x(12,14)
             + x(13,14) + x(15,14) + x(16,14)  = 1
 degree(31): x(1,15) + x(2,15) + x(3,15) + x(4,15) + x(5,15) + x(6,15)
             + x(7,15) + x(8,15) + x(9,15) + x(10,15) + x(11,15) + x(12,15)
             + x(13,15) + x(14,15) + x(16,15)  = 1
 degree(32): x(1,16) + x(2,16) + x(3,16) + x(4,16) + x(5,16) + x(6,16)
             + x(7,16) + x(8,16) + x(9,16) + x(10,16) + x(11,16) + x(12,16)
             + x(13,16) + x(14,16) + x(15,16)  = 1
Lazy Constraints
 uconsistency(2,3):   u(2) - u(3) + 15 x(2,3) <= 14
 uconsistency(2,4):   u(2) - u(4) + 15 x(2,4) <= 14
 uconsistency(2,5):   u(2) - u(5) + 15 x(2,5) <= 14
 uconsistency(2,6):   u(2) - u(6) + 15 x(2,6) <= 14
 uconsistency(2,7):   u(2) - u(7) + 15 x(2,7) <= 14
 uconsistency(2,8):   u(2) - u(8) + 15 x(2,8) <= 14
 uconsistency(2,9):   u(2) - u(9) + 15 x(2,9) <= 14
 uconsistency(2,10):  u(2) - u(10) + 15 x(2,10) <= 14
 uconsistency(2,11):  u(2) - u(11) + 15 x(2,11) <= 14
 uconsistency(2,12):  u(2) - u(12) + 15 x(2,12) <= 14
 uconsistency(2,13):  u(2) - u(13) + 15 x(2,13) <= 14
 uconsistency(2,14):  u(2) - u(14) + 15 x(2,14) <= 14
 uconsistency(2,15):  u(2) - u(15) + 15 x(2,15) <= 14
 uconsistency(2,16):  u(2) - u(16) + 15 x(2,16) <= 14
 uconsistency(3,2):   u(3) - u(2) + 15 x(3,2) <= 14
 uconsistency(3,4):   u(3) - u(4) + 15 x(3,4) <= 14
 uconsistency(3,5):   u(3) - u(5) + 15 x(3,5) <= 14
 uconsistency(3,6):   u(3) - u(6) + 15 x(3,6) <= 14
 uconsistency(3,7):   u(3) - u(7) + 15 x(3,7) <= 14
 uconsistency(3,8):   u(3) - u(8) + 15 x(3,8) <= 14
 uconsistency(3,9):   u(3) - u(9) + 15 x(3,9) <= 14
 uconsistency(3,10):  u(3) - u(10) + 15 x(3,10) <= 14
 uconsistency(3,11):  u(3) - u(11) + 15 x(3,11) <= 14
 uconsistency(3,12):  u(3) - u(12) + 15 x(3,12) <= 14
 uconsistency(3,13):  u(3) - u(13) + 15 x(3,13) <= 14
 uconsistency(3,14):  u(3) - u(14) + 15 x(3,14) <= 14
 uconsistency(3,15):  u(3) - u(15) + 15 x(3,15) <= 14
 uconsistency(3,16):  u(3) - u(16) + 15 x(3,16) <= 14
 uconsistency(4,2):   u(4) - u(2) + 15 x(4,2) <= 14
 uconsistency(4,3):   u(4) - u(3) + 15 x(4,3) <= 14
 uconsistency(4,5):   u(4) - u(5) + 15 x(4,5) <= 14
 uconsistency(4,6):   u(4) - u(6) + 15 x(4,6) <= 14
 uconsistency(4,7):   u(4) - u(7) + 15 x(4,7) <= 14
 uconsistency(4,8):   u(4) - u(8) + 15 x(4,8) <= 14
 uconsistency(4,9):   u(4) - u(9) + 15 x(4,9) <= 14
 uconsistency(4,10):  u(4) - u(10) + 15 x(4,10) <= 14
 uconsistency(4,11):  u(4) - u(11) + 15 x(4,11) <= 14
 uconsistency(4,12):  u(4) - u(12) + 15 x(4,12) <= 14
 uconsistency(4,13):  u(4) - u(13) + 15 x(4,13) <= 14
 uconsistency(4,14):  u(4) - u(14) + 15 x(4,14) <= 14
 uconsistency(4,15):  u(4) - u(15) + 15 x(4,15) <= 14
 uconsistency(4,16):  u(4) - u(16) + 15 x(4,16) <= 14
 uconsistency(5,2):   u(5) - u(2) + 15 x(5,2) <= 14
 uconsistency(5,3):   u(5) - u(3) + 15 x(5,3) <= 14
 uconsistency(5,4):   u(5) - u(4) + 15 x(5,4) <= 14
 uconsistency(5,6):   u(5) - u(6) + 15 x(5,6) <= 14
 uconsistency(5,7):   u(5) - u(7) + 15 x(5,7) <= 14
 uconsistency(5,8):   u(5) - u(8) + 15 x(5,8) <= 14
 uconsistency(5,9):   u(5) - u(9) + 15 x(5,9) <= 14
 uconsistency(5,10):  u(5) - u(10) + 15 x(5,10) <= 14
 uconsistency(5,11):  u(5) - u(11) + 15 x(5,11) <= 14
 uconsistency(5,12):  u(5) - u(12) + 15 x(5,12) <= 14
 uconsistency(5,13):  u(5) - u(13) + 15 x(5,13) <= 14
 uconsistency(5,14):  u(5) - u(14) + 15 x(5,14) <= 14
 uconsistency(5,15):  u(5) - u(15) + 15 x(5,15) <= 14
 uconsistency(5,16):  u(5) - u(16) + 15 x(5,16) <= 14
 uconsistency(6,2):   u(6) - u(2) + 15 x(6,2) <= 14
 uconsistency(6,3):   u(6) - u(3) + 15 x(6,3) <= 14
 uconsistency(6,4):   u(6) - u(4) + 15 x(6,4) <= 14
 uconsistency(6,5):   u(6) - u(5) + 15 x(6,5) <= 14
 uconsistency(6,7):   u(6) - u(7) + 15 x(6,7) <= 14
 uconsistency(6,8):   u(6) - u(8) + 15 x(6,8) <= 14
 uconsistency(6,9):   u(6) - u(9) + 15 x(6,9) <= 14
 uconsistency(6,10):  u(6) - u(10) + 15 x(6,10) <= 14
 uconsistency(6,11):  u(6) - u(11) + 15 x(6,11) <= 14
 uconsistency(6,12):  u(6) - u(12) + 15 x(6,12) <= 14
 uconsistency(6,13):  u(6) - u(13) + 15 x(6,13) <= 14
 uconsistency(6,14):  u(6) - u(14) + 15 x(6,14) <= 14
 uconsistency(6,15):  u(6) - u(15) + 15 x(6,15) <= 14
 uconsistency(6,16):  u(6) - u(16) + 15 x(6,16) <= 14
 uconsistency(7,2):   u(7) - u(2) + 15 x(7,2) <= 14
 uconsistency(7,3):   u(7) - u(3) + 15 x(7,3) <= 14
 uconsistency(7,4):   u(7) - u(4) + 15 x(7,4) <= 14
 uconsistency(7,5):   u(7) - u(5) + 15 x(7,5) <= 14
 uconsistency(7,6):   u(7) - u(6) + 15 x(7,6) <= 14
 uconsistency(7,8):   u(7) - u(8) + 15 x(7,8) <= 14
 uconsistency(7,9):   u(7) - u(9) + 15 x(7,9) <= 14
 uconsistency(7,10):  u(7) - u(10) + 15 x(7,10) <= 14
 uconsistency(7,11):  u(7) - u(11) + 15 x(7,11) <= 14
 uconsistency(7,12):  u(7) - u(12) + 15 x(7,12) <= 14
 uconsistency(7,13):  u(7) - u(13) + 15 x(7,13) <= 14
 uconsistency(7,14):  u(7) - u(14) + 15 x(7,14) <= 14
 uconsistency(7,15):  u(7) - u(15) + 15 x(7,15) <= 14
 uconsistency(7,16):  u(7) - u(16) + 15 x(7,16) <= 14
 uconsistency(8,2):   u(8) - u(2) + 15 x(8,2) <= 14
 uconsistency(8,3):   u(8) - u(3) + 15 x(8,3) <= 14
 uconsistency(8,4):   u(8) - u(4) + 15 x(8,4) <= 14
 uconsistency(8,5):   u(8) - u(5) + 15 x(8,5) <= 14
 uconsistency(8,6):   u(8) - u(6) + 15 x(8,6) <= 14
 uconsistency(8,7):   u(8) - u(7) + 15 x(8,7) <= 14
 uconsistency(8,9):   u(8) - u(9) + 15 x(8,9) <= 14
 uconsistency(8,10):  u(8) - u(10) + 15 x(8,10) <= 14
 uconsistency(8,11):  u(8) - u(11) + 15 x(8,11) <= 14
 uconsistency(8,12):  u(8) - u(12) + 15 x(8,12) <= 14
 uconsistency(8,13):  u(8) - u(13) + 15 x(8,13) <= 14
 uconsistency(8,14):  u(8) - u(14) + 15 x(8,14) <= 14
 uconsistency(8,15):  u(8) - u(15) + 15 x(8,15) <= 14
 uconsistency(8,16):  u(8) - u(16) + 15 x(8,16) <= 14
 uconsistency(9,2):   u(9) - u(2) + 15 x(9,2) <= 14
 uconsistency(9,3):   u(9) - u(3) + 15 x(9,3) <= 14
 uconsistency(9,4):   u(9) - u(4) + 15 x(9,4) <= 14
 uconsistency(9,5):   u(9) - u(5) + 15 x(9,5) <= 14
 uconsistency(9,6):   u(9) - u(6) + 15 x(9,6) <= 14
 uconsistency(9,7):   u(9) - u(7) + 15 x(9,7) <= 14
 uconsistency(9,8):   u(9) - u(8) + 15 x(9,8) <= 14
 uconsistency(9,10):  u(9) - u(10) + 15 x(9,10) <= 14
 uconsistency(9,11):  u(9) - u(11) + 15 x(9,11) <= 14
 uconsistency(9,12):  u(9) - u(12) + 15 x(9,12) <= 14
 uconsistency(9,13):  u(9) - u(13) + 15 x(9,13) <= 14
 uconsistency(9,14):  u(9) - u(14) + 15 x(9,14) <= 14
 uconsistency(9,15):  u(9) - u(15) + 15 x(9,15) <= 14
 uconsistency(9,16):  u(9) - u(16) + 15 x(9,16) <= 14
 uconsistency(10,2):  u(10) - u(2) + 15 x(10,2) <= 14
 uconsistency(10,3):  u(10) - u(3) + 15 x(10,3) <= 14
 uconsistency(10,4):  u(10) - u(4) + 15 x(10,4) <= 14
 uconsistency(10,5):  u(10) - u(5) + 15 x(10,5) <= 14
 uconsistency(10,6):  u(10) - u(6) + 15 x(10,6) <= 14
 uconsistency(10,7):  u(10) - u(7) + 15 x(10,7) <= 14
 uconsistency(10,8):  u(10) - u(8) + 15 x(10,8) <= 14
 uconsistency(10,9):  u(10) - u(9) + 15 x(10,9) <= 14
 uconsistency(10,11): u(10) - u(11) + 15 x(10,11) <= 14
 uconsistency(10,12): u(10) - u(12) + 15 x(10,12) <= 14
 uconsistency(10,13): u(10) - u(13) + 15 x(10,13) <= 14
 uconsistency(10,14): u(10) - u(14) + 15 x(10,14) <= 14
 uconsistency(10,15): u(10) - u(15) + 15 x(10,15) <= 14
 uconsistency(10,16): u(10) - u(16) + 15 x(10,16) <= 14
 uconsistency(11,2):  u(11) - u(2) + 15 x(11,2) <= 14
 uconsistency(11,3):  u(11) - u(3) + 15 x(11,3) <= 14
 uconsistency(11,4):  u(11) - u(4) + 15 x(11,4) <= 14
 uconsistency(11,5):  u(11) - u(5) + 15 x(11,5) <= 14
 uconsistency(11,6):  u(11) - u(6) + 15 x(11,6) <= 14
 uconsistency(11,7):  u(11) - u(7) + 15 x(11,7) <= 14
 uconsistency(11,8):  u(11) - u(8) + 15 x(11,8) <= 14
 uconsistency(11,9):  u(11) - u(9) + 15 x(11,9) <= 14
 uconsistency(11,10): u(11) - u(10) + 15 x(11,10) <= 14
 uconsistency(11,12): u(11) - u(12) + 15 x(11,12) <= 14
 uconsistency(11,13): u(11) - u(13) + 15 x(11,13) <= 14
 uconsistency(11,14): u(11) - u(14) + 15 x(11,14) <= 14
 uconsistency(11,15): u(11) - u(15) + 15 x(11,15) <= 14
 uconsistency(11,16): u(11) - u(16) + 15 x(11,16) <= 14
 uconsistency(12,2):  u(12) - u(2) + 15 x(12,2) <= 14
 uconsistency(12,3):  u(12) - u(3) + 15 x(12,3) <= 14
 uconsistency(12,4):  u(12) - u(4) + 15 x(12,4) <= 14
 uconsistency(12,5):  u(12) - u(5) + 15 x(12,5) <= 14
 uconsistency(12,6):  u(12) - u(6) + 15 x(12,6) <= 14
 uconsistency(12,7):  u(12) - u(7) + 15 x(12,7) <= 14
 uconsistency(12,8):  u(12) - u(8) + 15 x(12,8) <= 14
 uconsistency(12,9):  u(12) - u(9) + 15 x(12,9) <= 14
 uconsistency(12,10): u(12) - u(10) + 15 x(12,10) <= 14
 uconsistency(12,11): u(12) - u(11) + 15 x(12,11) <= 14
 uconsistency(12,13): u(12) - u(13) + 15 x(12,13) <= 14
 uconsistency(12,14): u(12) - u(14) + 15 x(12,14) <= 14
 uconsistency(12,15): u(12) - u(15) + 15 x(12,15) <= 14
 uconsistency(12,16): u(12) - u(16) + 15 x(12,16) <= 14
 uconsistency(13,2):  u(13) - u(2) + 15 x(13,2) <= 14
 uconsistency(13,3):  u(13) - u(3) + 15 x(13,3) <= 14
 uconsistency(13,4):  u(13) - u(4) + 15 x(13,4) <= 14
 uconsistency(13,5):  u(13) - u(5) + 15 x(13,5) <= 14
 uconsistency(13,6):  u(13) - u(6) + 15 x(13,6) <= 14
 uconsistency(13,7):  u(13) - u(7) + 15 x(13,7) <= 14
 uconsistency(13,8):  u(13) - u(8) + 15 x(13,8) <= 14
 uconsistency(13,9):  u(13) - u(9) + 15 x(13,9) <= 14
 uconsistency(13,10): u(13) - u(10) + 15 x(13,10) <= 14
 uconsistency(13,11): u(13) - u(11) + 15 x(13,11) <= 14
 uconsistency(13,12): u(13) - u(12) + 15 x(13,12) <= 14
 uconsistency(13,14): u(13) - u(14) + 15 x(13,14) <= 14
 uconsistency(13,15): u(13) - u(15) + 15 x(13,15) <= 14
 uconsistency(13,16): u(13) - u(16) + 15 x(13,16) <= 14
 uconsistency(14,2):  u(14) - u(2) + 15 x(14,2) <= 14
 uconsistency(14,3):  u(14) - u(3) + 15 x(14,3) <= 14
 uconsistency(14,4):  u(14) - u(4) + 15 x(14,4) <= 14
 uconsistency(14,5):  u(14) - u(5) + 15 x(14,5) <= 14
 uconsistency(14,6):  u(14) - u(6) + 15 x(14,6) <= 14
 uconsistency(14,7):  u(14) - u(7) + 15 x(14,7) <= 14
 uconsistency(14,8):  u(14) - u(8) + 15 x(14,8) <= 14
 uconsistency(14,9):  u(14) - u(9) + 15 x(14,9) <= 14
 uconsistency(14,10): u(14) - u(10) + 15 x(14,10) <= 14
 uconsistency(14,11): u(14) - u(11) + 15 x(14,11) <= 14
 uconsistency(14,12): u(14) - u(12) + 15 x(14,12) <= 14
 uconsistency(14,13): u(14) - u(13) + 15 x(14,13) <= 14
 uconsistency(14,15): u(14) - u(15) + 15 x(14,15) <= 14
 uconsistency(14,16): u(14) - u(16) + 15 x(14,16) <= 14
 uconsistency(15,2):  u(15) - u(2) + 15 x(15,2) <= 14
 uconsistency(15,3):  u(15) - u(3) + 15 x(15,3) <= 14
 uconsistency(15,4):  u(15) - u(4) + 15 x(15,4) <= 14
 uconsistency(15,5):  u(15) - u(5) + 15 x(15,5) <= 14
 uconsistency(15,6):  u(15) - u(6) + 15 x(15,6) <= 14
 uconsistency(15,7):  u(15) - u(7) + 15 x(15,7) <= 14
 uconsistency(15,8):  u(15) - u(8) + 15 x(15,8) <= 14
 uconsistency(15,9):  u(15) - u(9) + 15 x(15,9) <= 14
 uconsistency(15,10): u(15) - u(10) + 15 x(15,10) <= 14
 uconsistency(15,11): u(15) - u(11) + 15 x(15,11) <= 14
 uconsistency(15,12): u(15) - u(12) + 15 x(15,12) <= 14
 uconsistency(15,13): u(15) - u(13) + 15 x(15,13) <= 14
 uconsistency(15,14): u(15) - u(14) + 15 x(15,14) <= 14
 uconsistency(15,16): u(15) - u(16) + 15 x(15,16) <= 14
 uconsistency(16,2):  u(16) - u(2) + 15 x(16,2) <= 14
 uconsistency(16,3):  u(16) - u(3) + 15 x(16,3) <= 14
 uconsistency(16,4):  u(16) - u(4) + 15 x(16,4) <= 14
 uconsistency(16,5):  u(16) - u(5) + 15 x(16,5) <= 14
 uconsistency(16,6):  u(16) - u(6) + 15 x(16,6) <= 14
 uconsistency(16,7):  u(16) - u(7) + 15 x(16,7) <= 14
 uconsistency(16,8):  u(16) - u(8) + 15 x(16,8) <= 14
 uconsistency(16,9):  u(16) - u(9) + 15 x(16,9) <= 14
 uconsistency(16,10): u(16) - u(10) + 15 x(16,10) <= 14
 uconsistency(16,11): u(16) - u(11) + 15 x(16,11) <= 14
 uconsistency(16,12): u(16) - u(12) + 15 x(16,12) <= 14
 uconsistency(16,13): u(16) - u(13) + 15 x(16,13) <= 14
 uconsistency(16,14): u(16) - u(14) + 15 x(16,14) <= 14
 uconsistency(16,15): u(16) - u(15) + 15 x(16,15) <= 14
 ben(1):              x(2,3) + x(3,2) <= 1
 ben(2):              x(2,4) + x(4,2) <= 1
 ben(3):              x(2,5) + x(5,2) <= 1
 ben(4):              x(2,6) + x(6,2) <= 1
 ben(5):              x(2,7) + x(7,2) <= 1
 ben(6):              x(2,8) + x(8,2) <= 1
 ben(7):              x(2,9) + x(9,2) <= 1
 ben(8):              x(2,10) + x(10,2) <= 1
 ben(9):              x(2,11) + x(11,2) <= 1
 ben(10):             x(2,12) + x(12,2) <= 1
 ben(11):             x(2,13) + x(13,2) <= 1
 ben(12):             x(2,14) + x(14,2) <= 1
 ben(13):             x(2,15) + x(15,2) <= 1
 ben(14):             x(2,16) + x(16,2) <= 1
 ben(15):             x(3,2) + x(2,3) <= 1
 ben(16):             x(3,4) + x(4,3) <= 1
 ben(17):             x(3,5) + x(5,3) <= 1
 ben(18):             x(3,6) + x(6,3) <= 1
 ben(19):             x(3,7) + x(7,3) <= 1
 ben(20):             x(3,8) + x(8,3) <= 1
 ben(21):             x(3,9) + x(9,3) <= 1
 ben(22):             x(3,10) + x(10,3) <= 1
 ben(23):             x(3,11) + x(11,3) <= 1
 ben(24):             x(3,12) + x(12,3) <= 1
 ben(25):             x(3,13) + x(13,3) <= 1
 ben(26):             x(3,14) + x(14,3) <= 1
 ben(27):             x(3,15) + x(15,3) <= 1
 ben(28):             x(3,16) + x(16,3) <= 1
 ben(29):             x(4,2) + x(2,4) <= 1
 ben(30):             x(4,3) + x(3,4) <= 1
 ben(31):             x(4,5) + x(5,4) <= 1
 ben(32):             x(4,6) + x(6,4) <= 1
 ben(33):             x(4,7) + x(7,4) <= 1
 ben(34):             x(4,8) + x(8,4) <= 1
 ben(35):             x(4,9) + x(9,4) <= 1
 ben(36):             x(4,10) + x(10,4) <= 1
 ben(37):             x(4,11) + x(11,4) <= 1
 ben(38):             x(4,12) + x(12,4) <= 1
 ben(39):             x(4,13) + x(13,4) <= 1
 ben(40):             x(4,14) + x(14,4) <= 1
 ben(41):             x(4,15) + x(15,4) <= 1
 ben(42):             x(4,16) + x(16,4) <= 1
 ben(43):             x(5,2) + x(2,5) <= 1
 ben(44):             x(5,3) + x(3,5) <= 1
 ben(45):             x(5,4) + x(4,5) <= 1
 ben(46):             x(5,6) + x(6,5) <= 1
 ben(47):             x(5,7) + x(7,5) <= 1
 ben(48):             x(5,8) + x(8,5) <= 1
 ben(49):             x(5,9) + x(9,5) <= 1
 ben(50):             x(5,10) + x(10,5) <= 1
 ben(51):             x(5,11) + x(11,5) <= 1
 ben(52):             x(5,12) + x(12,5) <= 1
 ben(53):             x(5,13) + x(13,5) <= 1
 ben(54):             x(5,14) + x(14,5) <= 1
 ben(55):             x(5,15) + x(15,5) <= 1
 ben(56):             x(5,16) + x(16,5) <= 1
 ben(57):             x(6,2) + x(2,6) <= 1
 ben(58):             x(6,3) + x(3,6) <= 1
 ben(59):             x(6,4) + x(4,6) <= 1
 ben(60):             x(6,5) + x(5,6) <= 1
 ben(61):             x(6,7) + x(7,6) <= 1
 ben(62):             x(6,8) + x(8,6) <= 1
 ben(63):             x(6,9) + x(9,6) <= 1
 ben(64):             x(6,10) + x(10,6) <= 1
 ben(65):             x(6,11) + x(11,6) <= 1
 ben(66):             x(6,12) + x(12,6) <= 1
 ben(67):             x(6,13) + x(13,6) <= 1
 ben(68):             x(6,14) + x(14,6) <= 1
 ben(69):             x(6,15) + x(15,6) <= 1
 ben(70):             x(6,16) + x(16,6) <= 1
 ben(71):             x(7,2) + x(2,7) <= 1
 ben(72):             x(7,3) + x(3,7) <= 1
 ben(73):             x(7,4) + x(4,7) <= 1
 ben(74):             x(7,5) + x(5,7) <= 1
 ben(75):             x(7,6) + x(6,7) <= 1
 ben(76):             x(7,8) + x(8,7) <= 1
 ben(77):             x(7,9) + x(9,7) <= 1
 ben(78):             x(7,10) + x(10,7) <= 1
 ben(79):             x(7,11) + x(11,7) <= 1
 ben(80):             x(7,12) + x(12,7) <= 1
 ben(81):             x(7,13) + x(13,7) <= 1
 ben(82):             x(7,14) + x(14,7) <= 1
 ben(83):             x(7,15) + x(15,7) <= 1
 ben(84):             x(7,16) + x(16,7) <= 1
 ben(85):             x(8,2) + x(2,8) <= 1
 ben(86):             x(8,3) + x(3,8) <= 1
 ben(87):             x(8,4) + x(4,8) <= 1
 ben(88):             x(8,5) + x(5,8) <= 1
 ben(89):             x(8,6) + x(6,8) <= 1
 ben(90):             x(8,7) + x(7,8) <= 1
 ben(91):             x(8,9) + x(9,8) <= 1
 ben(92):             x(8,10) + x(10,8) <= 1
 ben(93):             x(8,11) + x(11,8) <= 1
 ben(94):             x(8,12) + x(12,8) <= 1
 ben(95):             x(8,13) + x(13,8) <= 1
 ben(96):             x(8,14) + x(14,8) <= 1
 ben(97):             x(8,15) + x(15,8) <= 1
 ben(98):             x(8,16) + x(16,8) <= 1
 ben(99):             x(9,2) + x(2,9) <= 1
 ben(100):            x(9,3) + x(3,9) <= 1
 ben(101):            x(9,4) + x(4,9) <= 1
 ben(102):            x(9,5) + x(5,9) <= 1
 ben(103):            x(9,6) + x(6,9) <= 1
 ben(104):            x(9,7) + x(7,9) <= 1
 ben(105):            x(9,8) + x(8,9) <= 1
 ben(106):            x(9,10) + x(10,9) <= 1
 ben(107):            x(9,11) + x(11,9) <= 1
 ben(108):            x(9,12) + x(12,9) <= 1
 ben(109):            x(9,13) + x(13,9) <= 1
 ben(110):            x(9,14) + x(14,9) <= 1
 ben(111):            x(9,15) + x(15,9) <= 1
 ben(112):            x(9,16) + x(16,9) <= 1
 ben(113):            x(10,2) + x(2,10) <= 1
 ben(114):            x(10,3) + x(3,10) <= 1
 ben(115):            x(10,4) + x(4,10) <= 1
 ben(116):            x(10,5) + x(5,10) <= 1
 ben(117):            x(10,6) + x(6,10) <= 1
 ben(118):            x(10,7) + x(7,10) <= 1
 ben(119):            x(10,8) + x(8,10) <= 1
 ben(120):            x(10,9) + x(9,10) <= 1
 ben(121):            x(10,11) + x(11,10) <= 1
 ben(122):            x(10,12) + x(12,10) <= 1
 ben(123):            x(10,13) + x(13,10) <= 1
 ben(124):            x(10,14) + x(14,10) <= 1
 ben(125):            x(10,15) + x(15,10) <= 1
 ben(126):            x(10,16) + x(16,10) <= 1
 ben(127):            x(11,2) + x(2,11) <= 1
 ben(128):            x(11,3) + x(3,11) <= 1
 ben(129):            x(11,4) + x(4,11) <= 1
 ben(130):            x(11,5) + x(5,11) <= 1
 ben(131):            x(11,6) + x(6,11) <= 1
 ben(132):            x(11,7) + x(7,11) <= 1
 ben(133):            x(11,8) + x(8,11) <= 1
 ben(134):            x(11,9) + x(9,11) <= 1
 ben(135):            x(11,10) + x(10,11) <= 1
 ben(136):            x(11,12) + x(12,11) <= 1
 ben(137):            x(11,13) + x(13,11) <= 1
 ben(138):            x(11,14) + x(14,11) <= 1
 ben(139):            x(11,15) + x(15,11) <= 1
 ben(140):            x(11,16) + x(16,11) <= 1
 ben(141):            x(12,2) + x(2,12) <= 1
 ben(142):            x(12,3) + x(3,12) <= 1
 ben(143):            x(12,4) + x(4,12) <= 1
 ben(144):            x(12,5) + x(5,12) <= 1
 ben(145):            x(12,6) + x(6,12) <= 1
 ben(146):            x(12,7) + x(7,12) <= 1
 ben(147):            x(12,8) + x(8,12) <= 1
 ben(148):            x(12,9) + x(9,12) <= 1
 ben(149):            x(12,10) + x(10,12) <= 1
 ben(150):            x(12,11) + x(11,12) <= 1
 ben(151):            x(12,13) + x(13,12) <= 1
 ben(152):            x(12,14) + x(14,12) <= 1
 ben(153):            x(12,15) + x(15,12) <= 1
 ben(154):            x(12,16) + x(16,12) <= 1
 ben(155):            x(13,2) + x(2,13) <= 1
 ben(156):            x(13,3) + x(3,13) <= 1
 ben(157):            x(13,4) + x(4,13) <= 1
 ben(158):            x(13,5) + x(5,13) <= 1
 ben(159):            x(13,6) + x(6,13) <= 1
 ben(160):            x(13,7) + x(7,13) <= 1
 ben(161):            x(13,8) + x(8,13) <= 1
 ben(162):            x(13,9) + x(9,13) <= 1
 ben(163):            x(13,10) + x(10,13) <= 1
 ben(164):            x(13,11) + x(11,13) <= 1
 ben(165):            x(13,12) + x(12,13) <= 1
 ben(166):            x(13,14) + x(14,13) <= 1
 ben(167):            x(13,15) + x(15,13) <= 1
 ben(168):            x(13,16) + x(16,13) <= 1
 ben(169):            x(14,2) + x(2,14) <= 1
 ben(170):            x(14,3) + x(3,14) <= 1
 ben(171):            x(14,4) + x(4,14) <= 1
 ben(172):            x(14,5) + x(5,14) <= 1
 ben(173):            x(14,6) + x(6,14) <= 1
 ben(174):            x(14,7) + x(7,14) <= 1
 ben(175):            x(14,8) + x(8,14) <= 1
 ben(176):            x(14,9) + x(9,14) <= 1
 ben(177):            x(14,10) + x(10,14) <= 1
 ben(178):            x(14,11) + x(11,14) <= 1
 ben(179):            x(14,12) + x(12,14) <= 1
 ben(180):            x(14,13) + x(13,14) <= 1
 ben(181):            x(14,15) + x(15,14) <= 1
 ben(182):            x(14,16) + x(16,14) <= 1
 ben(183):            x(15,2) + x(2,15) <= 1
 ben(184):            x(15,3) + x(3,15) <= 1
 ben(185):            x(15,4) + x(4,15) <= 1
 ben(186):            x(15,5) + x(5,15) <= 1
 ben(187):            x(15,6) + x(6,15) <= 1
 ben(188):            x(15,7) + x(7,15) <= 1
 ben(189):            x(15,8) + x(8,15) <= 1
 ben(190):            x(15,9) + x(9,15) <= 1
 ben(191):            x(15,10) + x(10,15) <= 1
 ben(192):            x(15,11) + x(11,15) <= 1
 ben(193):            x(15,12) + x(12,15) <= 1
 ben(194):            x(15,13) + x(13,15) <= 1
 ben(195):            x(15,14) + x(14,15) <= 1
 ben(196):            x(15,16) + x(16,15) <= 1
 ben(197):            x(16,2) + x(2,16) <= 1
 ben(198):            x(16,3) + x(3,16) <= 1
 ben(199):            x(16,4) + x(4,16) <= 1
 ben(200):            x(16,5) + x(5,16) <= 1
 ben(201):            x(16,6) + x(6,16) <= 1
 ben(202):            x(16,7) + x(7,16) <= 1
 ben(203):            x(16,8) + x(8,16) <= 1
 ben(204):            x(16,9) + x(9,16) <= 1
 ben(205):            x(16,10) + x(10,16) <= 1
 ben(206):            x(16,11) + x(11,16) <= 1
 ben(207):            x(16,12) + x(12,16) <= 1
 ben(208):            x(16,13) + x(13,16) <= 1
 ben(209):            x(16,14) + x(14,16) <= 1
 ben(210):            x(16,15) + x(15,16) <= 1
Bounds
      x(1,1) = 0
 0 <= x(1,2) <= 1
 0 <= x(1,3) <= 1
 0 <= x(1,4) <= 1
 0 <= x(1,5) <= 1
 0 <= x(1,6) <= 1
 0 <= x(1,7) <= 1
 0 <= x(1,8) <= 1
 0 <= x(1,9) <= 1
 0 <= x(1,10) <= 1
 0 <= x(1,11) <= 1
 0 <= x(1,12) <= 1
 0 <= x(1,13) <= 1
 0 <= x(1,14) <= 1
 0 <= x(1,15) <= 1
 0 <= x(1,16) <= 1
 0 <= x(2,1) <= 1
      x(2,2) = 0
 0 <= x(2,3) <= 1
 0 <= x(2,4) <= 1
 0 <= x(2,5) <= 1
 0 <= x(2,6) <= 1
 0 <= x(2,7) <= 1
 0 <= x(2,8) <= 1
 0 <= x(2,9) <= 1
 0 <= x(2,10) <= 1
 0 <= x(2,11) <= 1
 0 <= x(2,12) <= 1
 0 <= x(2,13) <= 1
 0 <= x(2,14) <= 1
 0 <= x(2,15) <= 1
 0 <= x(2,16) <= 1
 0 <= x(3,1) <= 1
 0 <= x(3,2) <= 1
      x(3,3) = 0
 0 <= x(3,4) <= 1
 0 <= x(3,5) <= 1
 0 <= x(3,6) <= 1
 0 <= x(3,7) <= 1
 0 <= x(3,8) <= 1
 0 <= x(3,9) <= 1
 0 <= x(3,10) <= 1
 0 <= x(3,11) <= 1
 0 <= x(3,12) <= 1
 0 <= x(3,13) <= 1
 0 <= x(3,14) <= 1
 0 <= x(3,15) <= 1
 0 <= x(3,16) <= 1
 0 <= x(4,1) <= 1
 0 <= x(4,2) <= 1
 0 <= x(4,3) <= 1
      x(4,4) = 0
 0 <= x(4,5) <= 1
 0 <= x(4,6) <= 1
 0 <= x(4,7) <= 1
 0 <= x(4,8) <= 1
 0 <= x(4,9) <= 1
 0 <= x(4,10) <= 1
 0 <= x(4,11) <= 1
 0 <= x(4,12) <= 1
 0 <= x(4,13) <= 1
 0 <= x(4,14) <= 1
 0 <= x(4,15) <= 1
 0 <= x(4,16) <= 1
 0 <= x(5,1) <= 1
 0 <= x(5,2) <= 1
 0 <= x(5,3) <= 1
 0 <= x(5,4) <= 1
      x(5,5) = 0
 0 <= x(5,6) <= 1
 0 <= x(5,7) <= 1
 0 <= x(5,8) <= 1
 0 <= x(5,9) <= 1
 0 <= x(5,10) <= 1
 0 <= x(5,11) <= 1
 0 <= x(5,12) <= 1
 0 <= x(5,13) <= 1
 0 <= x(5,14) <= 1
 0 <= x(5,15) <= 1
 0 <= x(5,16) <= 1
 0 <= x(6,1) <= 1
 0 <= x(6,2) <= 1
 0 <= x(6,3) <= 1
 0 <= x(6,4) <= 1
 0 <= x(6,5) <= 1
      x(6,6) = 0
 0 <= x(6,7) <= 1
 0 <= x(6,8) <= 1
 0 <= x(6,9) <= 1
 0 <= x(6,10) <= 1
 0 <= x(6,11) <= 1
 0 <= x(6,12) <= 1
 0 <= x(6,13) <= 1
 0 <= x(6,14) <= 1
 0 <= x(6,15) <= 1
 0 <= x(6,16) <= 1
 0 <= x(7,1) <= 1
 0 <= x(7,2) <= 1
 0 <= x(7,3) <= 1
 0 <= x(7,4) <= 1
 0 <= x(7,5) <= 1
 0 <= x(7,6) <= 1
      x(7,7) = 0
 0 <= x(7,8) <= 1
 0 <= x(7,9) <= 1
 0 <= x(7,10) <= 1
 0 <= x(7,11) <= 1
 0 <= x(7,12) <= 1
 0 <= x(7,13) <= 1
 0 <= x(7,14) <= 1
 0 <= x(7,15) <= 1
 0 <= x(7,16) <= 1
 0 <= x(8,1) <= 1
 0 <= x(8,2) <= 1
 0 <= x(8,3) <= 1
 0 <= x(8,4) <= 1
 0 <= x(8,5) <= 1
 0 <= x(8,6) <= 1
 0 <= x(8,7) <= 1
      x(8,8) = 0
 0 <= x(8,9) <= 1
 0 <= x(8,10) <= 1
 0 <= x(8,11) <= 1
 0 <= x(8,12) <= 1
 0 <= x(8,13) <= 1
 0 <= x(8,14) <= 1
 0 <= x(8,15) <= 1
 0 <= x(8,16) <= 1
 0 <= x(9,1) <= 1
 0 <= x(9,2) <= 1
 0 <= x(9,3) <= 1
 0 <= x(9,4) <= 1
 0 <= x(9,5) <= 1
 0 <= x(9,6) <= 1
 0 <= x(9,7) <= 1
 0 <= x(9,8) <= 1
      x(9,9) = 0
 0 <= x(9,10) <= 1
 0 <= x(9,11) <= 1
 0 <= x(9,12) <= 1
 0 <= x(9,13) <= 1
 0 <= x(9,14) <= 1
 0 <= x(9,15) <= 1
 0 <= x(9,16) <= 1
 0 <= x(10,1) <= 1
 0 <= x(10,2) <= 1
 0 <= x(10,3) <= 1
 0 <= x(10,4) <= 1
 0 <= x(10,5) <= 1
 0 <= x(10,6) <= 1
 0 <= x(10,7) <= 1
 0 <= x(10,8) <= 1
 0 <= x(10,9) <= 1
      x(10,10) = 0
 0 <= x(10,11) <= 1
 0 <= x(10,12) <= 1
 0 <= x(10,13) <= 1
 0 <= x(10,14) <= 1
 0 <= x(10,15) <= 1
 0 <= x(10,16) <= 1
 0 <= x(11,1) <= 1
 0 <= x(11,2) <= 1
 0 <= x(11,3) <= 1
 0 <= x(11,4) <= 1
 0 <= x(11,5) <= 1
 0 <= x(11,6) <= 1
 0 <= x(11,7) <= 1
 0 <= x(11,8) <= 1
 0 <= x(11,9) <= 1
 0 <= x(11,10) <= 1
      x(11,11) = 0
 0 <= x(11,12) <= 1
 0 <= x(11,13) <= 1
 0 <= x(11,14) <= 1
 0 <= x(11,15) <= 1
 0 <= x(11,16) <= 1
 0 <= x(12,1) <= 1
 0 <= x(12,2) <= 1
 0 <= x(12,3) <= 1
 0 <= x(12,4) <= 1
 0 <= x(12,5) <= 1
 0 <= x(12,6) <= 1
 0 <= x(12,7) <= 1
 0 <= x(12,8) <= 1
 0 <= x(12,9) <= 1
 0 <= x(12,10) <= 1
 0 <= x(12,11) <= 1
      x(12,12) = 0
 0 <= x(12,13) <= 1
 0 <= x(12,14) <= 1
 0 <= x(12,15) <= 1
 0 <= x(12,16) <= 1
 0 <= x(13,1) <= 1
 0 <= x(13,2) <= 1
 0 <= x(13,3) <= 1
 0 <= x(13,4) <= 1
 0 <= x(13,5) <= 1
 0 <= x(13,6) <= 1
 0 <= x(13,7) <= 1
 0 <= x(13,8) <= 1
 0 <= x(13,9) <= 1
 0 <= x(13,10) <= 1
 0 <= x(13,11) <= 1
 0 <= x(13,12) <= 1
      x(13,13) = 0
 0 <= x(13,14) <= 1
 0 <= x(13,15) <= 1
 0 <= x(13,16) <= 1
 0 <= x(14,1) <= 1
 0 <= x(14,2) <= 1
 0 <= x(14,3) <= 1
 0 <= x(14,4) <= 1
 0 <= x(14,5) <= 1
 0 <= x(14,6) <= 1
 0 <= x(14,7) <= 1
 0 <= x(14,8) <= 1
 0 <= x(14,9) <= 1
 0 <= x(14,10) <= 1
 0 <= x(14,11) <= 1
 0 <= x(14,12) <= 1
 0 <= x(14,13) <= 1
      x(14,14) = 0
 0 <= x(14,15) <= 1
 0 <= x(14,16) <= 1
 0 <= x(15,1) <= 1
 0 <= x(15,2) <= 1
 0 <= x(15,3) <= 1
 0 <= x(15,4) <= 1
 0 <= x(15,5) <= 1
 0 <= x(15,6) <= 1
 0 <= x(15,7) <= 1
 0 <= x(15,8) <= 1
 0 <= x(15,9) <= 1
 0 <= x(15,10) <= 1
 0 <= x(15,11) <= 1
 0 <= x(15,12) <= 1
 0 <= x(15,13) <= 1
 0 <= x(15,14) <= 1
      x(15,15) = 0
 0 <= x(15,16) <= 1
 0 <= x(16,1) <= 1
 0 <= x(16,2) <= 1
 0 <= x(16,3) <= 1
 0 <= x(16,4) <= 1
 0 <= x(16,5) <= 1
 0 <= x(16,6) <= 1
 0 <= x(16,7) <= 1
 0 <= x(16,8) <= 1
 0 <= x(16,9) <= 1
 0 <= x(16,10) <= 1
 0 <= x(16,11) <= 1
 0 <= x(16,12) <= 1
 0 <= x(16,13) <= 1
 0 <= x(16,14) <= 1
 0 <= x(16,15) <= 1
      x(16,16) = 0
      u(1) = 0
 0 <= u(2) <= 14
 0 <= u(3) <= 14
 0 <= u(4) <= 14
 0 <= u(5) <= 14
 0 <= u(6) <= 14
 0 <= u(7) <= 14
 0 <= u(8) <= 14
 0 <= u(9) <= 14
 0 <= u(10) <= 14
 0 <= u(11) <= 14
 0 <= u(12) <= 14
 0 <= u(13) <= 14
 0 <= u(14) <= 14
 0 <= u(15) <= 14
 0 <= u(16) <= 14
Binaries
 x(1,1)  x(1,2)  x(1,3)  x(1,4)  x(1,5)  x(1,6)  x(1,7)  x(1,8)  x(1,9) 
 x(1,10)  x(1,11)  x(1,12)  x(1,13)  x(1,14)  x(1,15)  x(1,16)  x(2,1)  x(2,2) 
 x(2,3)  x(2,4)  x(2,5)  x(2,6)  x(2,7)  x(2,8)  x(2,9)  x(2,10)  x(2,11) 
 x(2,12)  x(2,13)  x(2,14)  x(2,15)  x(2,16)  x(3,1)  x(3,2)  x(3,3)  x(3,4) 
 x(3,5)  x(3,6)  x(3,7)  x(3,8)  x(3,9)  x(3,10)  x(3,11)  x(3,12)  x(3,13) 
 x(3,14)  x(3,15)  x(3,16)  x(4,1)  x(4,2)  x(4,3)  x(4,4)  x(4,5)  x(4,6) 
 x(4,7)  x(4,8)  x(4,9)  x(4,10)  x(4,11)  x(4,12)  x(4,13)  x(4,14)  x(4,15) 
 x(4,16)  x(5,1)  x(5,2)  x(5,3)  x(5,4)  x(5,5)  x(5,6)  x(5,7)  x(5,8) 
 x(5,9)  x(5,10)  x(5,11)  x(5,12)  x(5,13)  x(5,14)  x(5,15)  x(5,16)  x(6,1) 
 x(6,2)  x(6,3)  x(6,4)  x(6,5)  x(6,6)  x(6,7)  x(6,8)  x(6,9)  x(6,10) 
 x(6,11)  x(6,12)  x(6,13)  x(6,14)  x(6,15)  x(6,16)  x(7,1)  x(7,2)  x(7,3) 
 x(7,4)  x(7,5)  x(7,6)  x(7,7)  x(7,8)  x(7,9)  x(7,10)  x(7,11)  x(7,12) 
 x(7,13)  x(7,14)  x(7,15)  x(7,16)  x(8,1)  x(8,2)  x(8,3)  x(8,4)  x(8,5) 
 x(8,6)  x(8,7)  x(8,8)  x(8,9)  x(8,10)  x(8,11)  x(8,12)  x(8,13)  x(8,14) 
 x(8,15)  x(8,16)  x(9,1)  x(9,2)  x(9,3)  x(9,4)  x(9,5)  x(9,6)  x(9,7) 
 x(9,8)  x(9,9)  x(9,10)  x(9,11)  x(9,12)  x(9,13)  x(9,14)  x(9,15)  x(9,16) 
 x(10,1)  x(10,2)  x(10,3)  x(10,4)  x(10,5)  x(10,6)  x(10,7)  x(10,8) 
 x(10,9)  x(10,10)  x(10,11)  x(10,12)  x(10,13)  x(10,14)  x(10,15)  x(10,16) 
 x(11,1)  x(11,2)  x(11,3)  x(11,4)  x(11,5)  x(11,6)  x(11,7)  x(11,8) 
 x(11,9)  x(11,10)  x(11,11)  x(11,12)  x(11,13)  x(11,14)  x(11,15)  x(11,16) 
 x(12,1)  x(12,2)  x(12,3)  x(12,4)  x(12,5)  x(12,6)  x(12,7)  x(12,8) 
 x(12,9)  x(12,10)  x(12,11)  x(12,12)  x(12,13)  x(12,14)  x(12,15)  x(12,16) 
 x(13,1)  x(13,2)  x(13,3)  x(13,4)  x(13,5)  x(13,6)  x(13,7)  x(13,8) 
 x(13,9)  x(13,10)  x(13,11)  x(13,12)  x(13,13)  x(13,14)  x(13,15)  x(13,16) 
 x(14,1)  x(14,2)  x(14,3)  x(14,4)  x(14,5)  x(14,6)  x(14,7)  x(14,8) 
 x(14,9)  x(14,10)  x(14,11)  x(14,12)  x(14,13)  x(14,14)  x(14,15)  x(14,16) 
 x(15,1)  x(15,2)  x(15,3)  x(15,4)  x(15,5)  x(15,6)  x(15,7)  x(15,8) 
 x(15,9)  x(15,10)  x(15,11)  x(15,12)  x(15,13)  x(15,14)  x(15,15)  x(15,16) 
 x(16,1)  x(16,2)  x(16,3)  x(16,4)  x(16,5)  x(16,6)  x(16,7)  x(16,8) 
 x(16,9)  x(16,10)  x(16,11)  x(16,12)  x(16,13)  x(16,14)  x(16,15)  x(16,16) 
Generals
 u(1)  u(2)  u(3)  u(4)  u(5)  u(6)  u(7)  u(8)  u(9)  u(10)  u(11)  u(12) 
 u(13)  u(14)  u(15)  u(16) 
End
